c Reduced graph for GEOM110 generated by Cyril Grelier
p edge 87 495
e 1 2
e 1 3
e 1 8
e 1 9
e 1 17
e 1 18
e 1 19
e 1 27
e 1 34
e 1 42
e 1 45
e 1 54
e 1 58
e 1 66
e 1 67
e 1 74
e 1 83
e 1 85
e 1 86
e 2 3
e 2 8
e 2 9
e 2 17
e 2 18
e 2 19
e 2 22
e 2 27
e 2 34
e 2 42
e 2 58
e 2 66
e 2 67
e 2 74
e 2 83
e 2 85
e 2 86
e 3 7
e 3 17
e 3 18
e 3 29
e 3 30
e 3 33
e 3 34
e 3 42
e 3 45
e 3 54
e 3 67
e 3 80
e 4 5
e 4 6
e 4 20
e 4 21
e 4 23
e 4 26
e 4 35
e 4 44
e 4 46
e 4 52
e 4 53
e 4 56
e 4 71
e 4 79
e 5 20
e 5 23
e 5 24
e 5 35
e 5 44
e 5 46
e 5 47
e 5 53
e 5 62
e 5 65
e 5 71
e 5 77
e 5 79
e 6 7
e 6 23
e 6 26
e 6 29
e 6 30
e 6 33
e 6 52
e 6 56
e 6 71
e 6 72
e 6 79
e 6 80
e 7 26
e 7 29
e 7 30
e 7 33
e 7 43
e 7 52
e 7 67
e 7 71
e 7 72
e 7 79
e 7 80
e 8 9
e 8 34
e 8 45
e 8 54
e 8 58
e 8 69
e 8 74
e 8 78
e 8 83
e 8 86
e 9 34
e 9 45
e 9 54
e 9 58
e 9 69
e 9 74
e 9 83
e 9 86
e 10 11
e 10 14
e 10 15
e 10 48
e 10 50
e 10 51
e 10 63
e 10 70
e 10 82
e 10 84
e 10 87
e 11 14
e 11 15
e 11 48
e 11 50
e 11 51
e 11 63
e 11 70
e 11 82
e 11 84
e 11 87
e 12 13
e 12 21
e 12 25
e 12 40
e 12 41
e 12 44
e 12 53
e 12 56
e 12 60
e 13 25
e 13 40
e 13 41
e 13 44
e 13 47
e 13 53
e 13 60
e 14 50
e 14 51
e 14 54
e 14 70
e 14 78
e 14 82
e 15 50
e 15 51
e 15 63
e 15 82
e 15 87
e 16 28
e 16 32
e 16 49
e 16 68
e 16 81
e 17 18
e 17 19
e 17 22
e 17 27
e 17 31
e 17 38
e 17 42
e 17 66
e 17 67
e 17 74
e 17 83
e 17 85
e 18 19
e 18 22
e 18 33
e 18 38
e 18 42
e 18 43
e 18 66
e 18 67
e 18 83
e 18 85
e 19 22
e 19 27
e 19 31
e 19 38
e 19 39
e 19 42
e 19 66
e 19 67
e 19 85
e 20 23
e 20 24
e 20 35
e 20 44
e 20 46
e 20 47
e 20 53
e 20 62
e 20 65
e 20 77
e 20 79
e 21 26
e 21 33
e 21 43
e 21 52
e 21 53
e 21 55
e 21 56
e 21 61
e 21 72
e 21 76
e 21 79
e 22 27
e 22 31
e 22 38
e 22 39
e 22 42
e 22 66
e 22 85
e 23 26
e 23 35
e 23 46
e 23 48
e 23 71
e 23 77
e 23 79
e 24 35
e 24 44
e 24 47
e 24 62
e 24 65
e 25 40
e 25 41
e 25 60
e 26 30
e 26 33
e 26 43
e 26 52
e 26 53
e 26 55
e 26 56
e 26 71
e 26 72
e 26 79
e 26 80
e 27 31
e 27 42
e 27 58
e 27 74
e 27 83
e 27 85
e 27 86
e 28 32
e 28 36
e 28 37
e 28 49
e 28 57
e 28 59
e 28 68
e 28 73
e 28 75
e 28 81
e 28 84
e 29 30
e 29 33
e 29 34
e 29 45
e 29 54
e 29 67
e 29 70
e 29 80
e 30 33
e 30 52
e 30 54
e 30 71
e 30 72
e 30 80
e 31 38
e 31 42
e 31 66
e 31 85
e 32 49
e 32 68
e 32 81
e 33 43
e 33 52
e 33 55
e 33 61
e 33 66
e 33 67
e 33 72
e 33 76
e 33 80
e 34 45
e 34 54
e 34 58
e 34 69
e 34 74
e 34 78
e 34 83
e 34 86
e 35 46
e 35 47
e 35 48
e 35 62
e 35 71
e 35 77
e 35 79
e 36 37
e 36 49
e 36 57
e 36 59
e 36 63
e 36 68
e 36 73
e 36 75
e 36 81
e 36 84
e 36 87
e 37 48
e 37 57
e 37 59
e 37 68
e 37 73
e 37 75
e 37 77
e 37 81
e 37 84
e 38 39
e 38 42
e 38 64
e 38 66
e 38 85
e 39 43
e 39 55
e 39 61
e 39 64
e 39 66
e 39 76
e 40 41
e 40 44
e 40 60
e 41 60
e 42 66
e 42 67
e 42 83
e 42 85
e 43 52
e 43 55
e 43 61
e 43 64
e 43 66
e 43 67
e 43 72
e 43 76
e 44 47
e 44 53
e 44 56
e 44 60
e 44 65
e 44 79
e 45 54
e 45 58
e 45 69
e 45 74
e 45 78
e 45 83
e 45 86
e 46 47
e 46 48
e 46 53
e 46 62
e 46 71
e 46 77
e 46 79
e 47 53
e 47 60
e 47 62
e 47 65
e 48 57
e 48 73
e 48 77
e 48 84
e 49 57
e 49 59
e 49 68
e 49 73
e 49 75
e 49 81
e 50 51
e 50 63
e 50 70
e 50 82
e 50 87
e 51 70
e 51 78
e 51 82
e 52 55
e 52 56
e 52 61
e 52 71
e 52 72
e 52 76
e 52 79
e 52 80
e 53 56
e 53 60
e 53 71
e 53 79
e 54 69
e 54 70
e 54 78
e 54 86
e 55 56
e 55 61
e 55 64
e 55 66
e 55 67
e 55 72
e 55 76
e 56 71
e 56 72
e 56 79
e 57 59
e 57 68
e 57 73
e 57 75
e 57 77
e 57 81
e 57 84
e 58 69
e 58 74
e 58 83
e 58 86
e 59 68
e 59 73
e 59 75
e 59 81
e 59 84
e 60 65
e 61 64
e 61 72
e 61 76
e 62 73
e 62 77
e 63 75
e 63 84
e 63 87
e 64 66
e 64 76
e 66 67
e 66 76
e 66 85
e 67 72
e 67 76
e 67 80
e 67 85
e 68 73
e 68 75
e 68 81
e 68 84
e 69 74
e 69 78
e 69 83
e 69 86
e 70 78
e 70 82
e 71 72
e 71 79
e 71 80
e 72 76
e 72 80
e 73 75
e 73 77
e 73 81
e 73 84
e 74 83
e 74 86
e 75 81
e 75 84
e 75 87
e 78 82
e 82 87
e 83 86
e 84 87
